p cnf 140 640
1 -73 0
1 -74 0
73 -73 0
74 -74 0
19 -77 0
19 -78 0
77 -77 0
78 -78 0
37 -81 0
37 -82 0
81 -81 0
82 -82 0
55 -85 0
55 -86 0
85 -85 0
86 -86 0
2 -73 0
2 -74 0
73 -73 0
74 -74 0
20 -77 0
20 -78 0
77 -77 0
78 -78 0
38 -81 0
38 -82 0
81 -81 0
82 -82 0
56 -85 0
56 -86 0
85 -85 0
86 -86 0
3 -89 -73 0
-3 89 -73 0
3 89 -74 0
-3 -89 -74 0
21 -89 -77 0
-21 89 -77 0
21 89 -78 0
-21 -89 -78 0
39 -89 -81 0
-39 89 -81 0
39 89 -82 0
-39 -89 -82 0
57 -89 -85 0
-57 89 -85 0
57 89 -86 0
-57 -89 -86 0
-4 -73 0
-4 -74 0
73 -73 0
74 -74 0
-22 -77 0
-22 -78 0
77 -77 0
78 -78 0
-40 -81 0
-40 -82 0
81 -81 0
82 -82 0
-58 -85 0
-58 -86 0
85 -85 0
86 -86 0
5 -90 -73 0
-5 90 -73 0
5 90 -74 0
-5 -90 -74 0
23 -90 -77 0
-23 90 -77 0
23 90 -78 0
-23 -90 -78 0
41 -90 -81 0
-41 90 -81 0
41 90 -82 0
-41 -90 -82 0
59 -90 -85 0
-59 90 -85 0
59 90 -86 0
-59 -90 -86 0
6 -73 0
6 -74 0
73 -73 0
74 -74 0
24 -77 0
24 -78 0
77 -77 0
78 -78 0
42 -81 0
42 -82 0
81 -81 0
82 -82 0
60 -85 0
60 -86 0
85 -85 0
86 -86 0
7 -91 -73 0
-7 91 -73 0
7 91 -74 0
-7 -91 -74 0
25 -91 -77 0
-25 91 -77 0
25 91 -78 0
-25 -91 -78 0
43 -91 -81 0
-43 91 -81 0
43 91 -82 0
-43 -91 -82 0
61 -91 -85 0
-61 91 -85 0
61 91 -86 0
-61 -91 -86 0
8 -92 -73 0
-8 92 -73 0
8 92 -74 0
-8 -92 -74 0
26 -92 -77 0
-26 92 -77 0
26 92 -78 0
-26 -92 -78 0
44 -92 -81 0
-44 92 -81 0
44 92 -82 0
-44 -92 -82 0
62 -92 -85 0
-62 92 -85 0
62 92 -86 0
-62 -92 -86 0
9 -73 0
9 -74 0
73 -73 0
74 -74 0
27 -77 0
27 -78 0
77 -77 0
78 -78 0
45 -81 0
45 -82 0
81 -81 0
82 -82 0
63 -85 0
63 -86 0
85 -85 0
86 -86 0
-10 -73 0
-10 -74 0
73 -73 0
74 -74 0
-28 -77 0
-28 -78 0
77 -77 0
78 -78 0
-46 -81 0
-46 -82 0
81 -81 0
82 -82 0
-64 -85 0
-64 -86 0
85 -85 0
86 -86 0
11 -73 0
11 -74 0
73 -73 0
74 -74 0
29 -77 0
29 -78 0
77 -77 0
78 -78 0
47 -81 0
47 -82 0
81 -81 0
82 -82 0
65 -85 0
65 -86 0
85 -85 0
86 -86 0
12 -93 -73 0
-12 93 -73 0
12 93 -74 0
-12 -93 -74 0
30 -93 -77 0
-30 93 -77 0
30 93 -78 0
-30 -93 -78 0
48 -93 -81 0
-48 93 -81 0
48 93 -82 0
-48 -93 -82 0
66 -93 -85 0
-66 93 -85 0
66 93 -86 0
-66 -93 -86 0
13 -94 -73 0
-13 94 -73 0
13 94 -74 0
-13 -94 -74 0
31 -94 -77 0
-31 94 -77 0
31 94 -78 0
-31 -94 -78 0
49 -94 -81 0
-49 94 -81 0
49 94 -82 0
-49 -94 -82 0
67 -94 -85 0
-67 94 -85 0
67 94 -86 0
-67 -94 -86 0
14 -95 -73 0
-14 95 -73 0
14 95 -74 0
-14 -95 -74 0
32 -95 -77 0
-32 95 -77 0
32 95 -78 0
-32 -95 -78 0
50 -95 -81 0
-50 95 -81 0
50 95 -82 0
-50 -95 -82 0
68 -95 -85 0
-68 95 -85 0
68 95 -86 0
-68 -95 -86 0
15 -96 -73 0
-15 96 -73 0
15 96 -74 0
-15 -96 -74 0
33 -96 -77 0
-33 96 -77 0
33 96 -78 0
-33 -96 -78 0
51 -96 -81 0
-51 96 -81 0
51 96 -82 0
-51 -96 -82 0
69 -96 -85 0
-69 96 -85 0
69 96 -86 0
-69 -96 -86 0
16 -73 0
16 -74 0
73 -73 0
74 -74 0
34 -77 0
34 -78 0
77 -77 0
78 -78 0
52 -81 0
52 -82 0
81 -81 0
82 -82 0
70 -85 0
70 -86 0
85 -85 0
86 -86 0
17 -97 -73 0
-17 97 -73 0
17 97 -74 0
-17 -97 -74 0
35 -97 -77 0
-35 97 -77 0
35 97 -78 0
-35 -97 -78 0
53 -97 -81 0
-53 97 -81 0
53 97 -82 0
-53 -97 -82 0
71 -97 -85 0
-71 97 -85 0
71 97 -86 0
-71 -97 -86 0
-18 -73 0
-18 -74 0
73 -73 0
74 -74 0
-36 -77 0
-36 -78 0
77 -77 0
78 -78 0
-54 -81 0
-54 -82 0
81 -81 0
82 -82 0
-72 -85 0
-72 -86 0
85 -85 0
86 -86 0
-125 73 0
125 -73 0
-126 74 0
125 -74 0
-125 -73 0
-126 -74 0
-129 73 125 0
129 -73 0
129 -125 0
-130 74 126 0
130 -74 0
130 -126 0
-129 -77 0
-130 -78 0
-133 77 129 0
133 -77 0
133 -129 0
-134 78 130 0
134 -78 0
134 -130 0
-133 -81 0
-134 -82 0
-137 81 133 0
137 -81 0
137 -133 0
-138 82 134 0
138 -82 0
138 -134 0
-137 -85 0
-138 -86 0
137 0
138 0
-1 -75 0
-1 -76 0
75 -75 0
76 -76 0
-19 -79 0
-19 -80 0
79 -79 0
80 -80 0
-37 -83 0
-37 -84 0
83 -83 0
84 -84 0
-55 -87 0
-55 -88 0
87 -87 0
88 -88 0
2 -75 0
2 -76 0
75 -75 0
76 -76 0
20 -79 0
20 -80 0
79 -79 0
80 -80 0
38 -83 0
38 -84 0
83 -83 0
84 -84 0
56 -87 0
56 -88 0
87 -87 0
88 -88 0
3 -98 -75 0
-3 98 -75 0
3 98 -76 0
-3 -98 -76 0
21 -98 -79 0
-21 98 -79 0
21 98 -80 0
-21 -98 -80 0
39 -98 -83 0
-39 98 -83 0
39 98 -84 0
-39 -98 -84 0
57 -98 -87 0
-57 98 -87 0
57 98 -88 0
-57 -98 -88 0
-4 -75 0
-4 -76 0
75 -75 0
76 -76 0
-22 -79 0
-22 -80 0
79 -79 0
80 -80 0
-40 -83 0
-40 -84 0
83 -83 0
84 -84 0
-58 -87 0
-58 -88 0
87 -87 0
88 -88 0
5 -99 -75 0
-5 99 -75 0
5 99 -76 0
-5 -99 -76 0
23 -99 -79 0
-23 99 -79 0
23 99 -80 0
-23 -99 -80 0
41 -99 -83 0
-41 99 -83 0
41 99 -84 0
-41 -99 -84 0
59 -99 -87 0
-59 99 -87 0
59 99 -88 0
-59 -99 -88 0
6 -75 0
6 -76 0
75 -75 0
76 -76 0
24 -79 0
24 -80 0
79 -79 0
80 -80 0
42 -83 0
42 -84 0
83 -83 0
84 -84 0
60 -87 0
60 -88 0
87 -87 0
88 -88 0
7 -100 -75 0
-7 100 -75 0
7 100 -76 0
-7 -100 -76 0
25 -100 -79 0
-25 100 -79 0
25 100 -80 0
-25 -100 -80 0
43 -100 -83 0
-43 100 -83 0
43 100 -84 0
-43 -100 -84 0
61 -100 -87 0
-61 100 -87 0
61 100 -88 0
-61 -100 -88 0
8 -75 0
8 -76 0
75 -75 0
76 -76 0
26 -79 0
26 -80 0
79 -79 0
80 -80 0
44 -83 0
44 -84 0
83 -83 0
84 -84 0
62 -87 0
62 -88 0
87 -87 0
88 -88 0
9 -75 0
9 -76 0
75 -75 0
76 -76 0
27 -79 0
27 -80 0
79 -79 0
80 -80 0
45 -83 0
45 -84 0
83 -83 0
84 -84 0
63 -87 0
63 -88 0
87 -87 0
88 -88 0
-10 -75 0
-10 -76 0
75 -75 0
76 -76 0
-28 -79 0
-28 -80 0
79 -79 0
80 -80 0
-46 -83 0
-46 -84 0
83 -83 0
84 -84 0
-64 -87 0
-64 -88 0
87 -87 0
88 -88 0
11 -101 -75 0
-11 101 -75 0
11 101 -76 0
-11 -101 -76 0
29 -101 -79 0
-29 101 -79 0
29 101 -80 0
-29 -101 -80 0
47 -101 -83 0
-47 101 -83 0
47 101 -84 0
-47 -101 -84 0
65 -101 -87 0
-65 101 -87 0
65 101 -88 0
-65 -101 -88 0
12 -75 0
12 -76 0
75 -75 0
76 -76 0
30 -79 0
30 -80 0
79 -79 0
80 -80 0
48 -83 0
48 -84 0
83 -83 0
84 -84 0
66 -87 0
66 -88 0
87 -87 0
88 -88 0
13 -75 0
13 -76 0
75 -75 0
76 -76 0
31 -79 0
31 -80 0
79 -79 0
80 -80 0
49 -83 0
49 -84 0
83 -83 0
84 -84 0
67 -87 0
67 -88 0
87 -87 0
88 -88 0
14 -102 -75 0
-14 102 -75 0
14 102 -76 0
-14 -102 -76 0
32 -102 -79 0
-32 102 -79 0
32 102 -80 0
-32 -102 -80 0
50 -102 -83 0
-50 102 -83 0
50 102 -84 0
-50 -102 -84 0
68 -102 -87 0
-68 102 -87 0
68 102 -88 0
-68 -102 -88 0
15 -103 -75 0
-15 103 -75 0
15 103 -76 0
-15 -103 -76 0
33 -103 -79 0
-33 103 -79 0
33 103 -80 0
-33 -103 -80 0
51 -103 -83 0
-51 103 -83 0
51 103 -84 0
-51 -103 -84 0
69 -103 -87 0
-69 103 -87 0
69 103 -88 0
-69 -103 -88 0
16 -75 0
16 -76 0
75 -75 0
76 -76 0
34 -79 0
34 -80 0
79 -79 0
80 -80 0
52 -83 0
52 -84 0
83 -83 0
84 -84 0
70 -87 0
70 -88 0
87 -87 0
88 -88 0
17 -75 0
17 -76 0
75 -75 0
76 -76 0
35 -79 0
35 -80 0
79 -79 0
80 -80 0
53 -83 0
53 -84 0
83 -83 0
84 -84 0
71 -87 0
71 -88 0
87 -87 0
88 -88 0
18 -104 -75 0
-18 104 -75 0
18 104 -76 0
-18 -104 -76 0
36 -104 -79 0
-36 104 -79 0
36 104 -80 0
-36 -104 -80 0
54 -104 -83 0
-54 104 -83 0
54 104 -84 0
-54 -104 -84 0
72 -104 -87 0
-72 104 -87 0
72 104 -88 0
-72 -104 -88 0
-127 75 0
127 -75 0
-128 76 0
127 -76 0
-127 -75 0
-128 -76 0
-131 75 127 0
131 -75 0
131 -127 0
-132 76 128 0
132 -76 0
132 -128 0
-131 -79 0
-132 -80 0
-135 79 131 0
135 -79 0
135 -131 0
-136 80 132 0
136 -80 0
136 -132 0
-135 -83 0
-136 -84 0
-139 83 135 0
139 -83 0
139 -135 0
-140 84 136 0
140 -84 0
140 -136 0
-139 -87 0
-140 -88 0
139 0
140 0
